100
32
2
16
21
17
28
16
17
6
8
27
26
18
13
11
9
10
25
4
1
23
27
23
1
13
1
10
2
2
7
2
19
2
1
29
18
1
2
3
20
8
4
7
1
23
18
17
21
3
15
3
2
10
3
4
22
2
17
1
5
2
17
15
2
7
4
1
3
1
1
11
1
18
17
23
2
7
1
1
21
3
2
4
7
2
4
1
5
3
20
5
2
1
10
5
18
1
2
3
2
8